experiments/mac_ortools/detailed-output/inst-31-678190058.dzn

A = 3;
T = 63;
X = 8;
Y = 8;
Z = 8;
building = array2d(0..7, 0..7,
                   [0, 0, 0, 0, 0, 0, 0, 0, 0, 5, 2, 0, 4, 4, 5, 0, 0, 5, 1, 3, 6, 3, 2, 0, 0, 1, 5, 1, 1, 3, 1, 0,
                    0, 1, 1, 1, 1, 1, 1, 0, 0, 1, 1, 1, 1, 1, 1, 0, 0, 1, 1, 1, 1, 1, 1, 0, 0, 0, 0, 0, 0, 0, 0, 0]);
